instances/knapsack/discrete/knapsack_70_17.kp
57021
70
320

51 5.1 28
60 6.0 56
42 4.2 66
23 2.3 74
8 0.8 3
29 2.9 95
61 6.1 71
99 9.9 17
37 3.7 68
86 8.6 40
67 6.7 41
75 7.5 45
36 3.6 61
8 0.8 52
4 0.4 21
12 1.2 94
37 3.7 48
60 6.0 72
97 9.7 16
78 7.8 43
49 4.9 11
67 6.7 49
92 9.2 62
94 9.4 66
52 5.2 3
8 0.8 92
38 3.8 66
59 5.9 85
85 8.5 4
27 2.7 50
9 0.9 71
59 5.9 98
59 5.9 86
1 0.1 45
100 10.0 37
93 9.3 99
20 2.0 23
12 1.2 33
84 8.4 36
30 3.0 61
95 9.5 38
89 8.9 23
42 4.2 27
81 8.1 61
11 1.1 12
82 8.2 69
93 9.3 26
21 2.1 86
87 8.7 14
56 5.6 39
2 0.2 45
52 5.2 96
5 0.5 25
40 4.0 3
48 4.8 86
63 6.3 100
5 0.5 88
2 0.2 66
32 3.2 34
18 1.8 21
24 2.4 30
10 1.0 96
35 3.5 71
70 7.0 15
35 3.5 32
72 7.2 27
52 5.2 83
46 4.6 59
44 4.4 54
45 4.5 63

77643
362

[1.757917703059101 4.556111740947229 4.6097260716701784 4.361412681741395 0.8548261388919534 2.1331640152539695 1.1755487319803728 3.326279824154966 5.0463121900329435 3.0667207541673847 1.5483466516094901 0.6439848651686366 1.5131866562696847 0.3671564890897397 0.967128732530271 0.7927188399199394 3.147079533519523 0.2174226404568725 1.552141102805335 3.9530094144143124 4.417805590001608 1.622440684752279 4.779706972814081 3.180148330487423 1.7303945259120164 1.8216125063533366 3.394796466718878 4.804628615270938 2.8772065610516466 4.906961165914469 1.0585408642861982 4.621896574942558 2.9618461581535276 5.09471744756785 3.3871686268456336 3.0411410182808107 2.2643431076104363 4.969281889958923 4.491158095550551 1.5399209876580804 0.679558322830885 0.49593328033435263 1.1897787980904733 3.828153579806691 4.241369076280594 2.106910782119158 2.894914417424013 1.3256975357534049 0.11434830506268638 2.3823385394315117 4.867968919340136 3.6101337922952723 1.5899093218438984 0.6157195271742736 3.787626309531756 4.8870654952137 5.0928288790423775 1.072927281738909 3.285480776633005 1.8058037388410841 5.128000243106117 2.563525672837373 2.311269673612969 5.033496993162405 4.292379919281837 1.8285819881921044 3.582671745684074 1.3088698396307572 2.5691981523588 4.78230619868235]

[58 55 65 38 15 68 72 82 24 77 82 58 23 79 47 31 48 15 64 65 52 10 79 21 3 55 73 94 44 70 64 50 70 64 27 48 15 47 63 33 46 92 77 84 94 45 92 84 94 27 65 51 40 99 7 54 68 17 83 45 87 65 42 41 6 47 19 93 31 60]
